p tw 106 120
1 2
2 19
3 10
4 5
5 6
6 7
7 8
8 9
10 11
11 12
12 13
12 18
13 14
14 15
15 16
16 17
17 18
17 21
18 20
19 30
20 8
21 22
22 23
23 24
24 25
24 34
25 26
26 27
27 28
27 29
28 8
29 31
30 41
30 36
31 32
32 33
33 23
34 35
35 8
36 37
37 38
38 39
39 40
40 42
41 52
42 43
43 44
44 45
45 46
45 83
46 47
47 48
48 49
49 50
50 51
50 101
51 53
52 63
53 54
54 55
55 56
56 57
57 58
58 59
59 60
60 61
61 62
62 64
63 74
64 65
65 66
65 68
66 67
67 68
68 69
69 70
70 71
70 55
71 72
72 73
72 76
73 75
74 85
75 76
75 55
76 77
77 78
77 101
78 79
79 80
80 81
81 82
82 101
83 84
84 86
85 96
85 18
86 87
86 101
87 88
88 89
89 90
90 91
91 92
92 93
92 101
93 94
94 95
95 97
96 3
97 98
98 99
99 100
100 101
101 102
102 103
103 104
104 105
105 106
106 4
